0 1 0 1 0 0 0 1 0 1 0 1 1 
0 19 21 72 69 27 43 17 54 60 57 32 78 
19 0 66 57 39 17 73 38 39 68 42 30 32 
21 66 0 23 48 72 80 58 28 26 58 49 60 
72 57 23 0 34 77 19 80 26 58 19 17 56 
69 39 48 34 0 54 18 21 67 80 68 64 46 
27 17 72 77 54 0 71 73 28 53 47 32 59 
43 73 80 19 18 71 0 52 38 67 27 49 74 
17 38 58 80 21 73 52 0 44 49 21 56 51 
54 39 28 26 67 28 38 44 0 43 51 51 73 
60 68 26 58 80 53 67 49 43 0 74 61 72 
57 42 58 19 68 47 27 21 51 74 0 45 17 
32 30 49 17 64 32 49 56 51 61 45 0 34 
78 32 60 56 46 59 74 51 73 72 17 34 0 
2 50
1B 3B 10P 9B 6B 2P 12P 13P 11B 4P 7B 5B 8P = 310